code/vi_44_39_0-3-.lp
\ LP format - for model browsing. Use MPS format to capture full model detail.
Minimize
  - C
Subject To
 time(1,1): x(1,1,0) + x(1,1,1) + x(1,1,2) + x(1,1,3) + x(1,1,4) + x(1,1,5)
   + x(1,1,6) + x(1,1,7) + x(1,1,8) + x(1,1,9) + x(1,1,10) + x(1,1,11)
   + x(1,1,12) + x(1,1,13) + x(1,1,14) + x(1,1,15) = 1
 time(1,4): x(4,1,10) + x(4,1,11) + x(4,1,12) + x(4,1,13) + x(4,1,14)
   + x(4,1,15) + x(4,1,16) + x(4,1,17) + x(4,1,18) + x(4,1,19) + x(4,1,20)
   = 1
 time(2,1): x(1,2,17) + x(1,2,18) + x(1,2,19) + x(1,2,20) + x(1,2,21)
   + x(1,2,22) + x(1,2,23) + x(1,2,24) + x(1,2,25) + x(1,2,26) + x(1,2,27)
   + x(1,2,28) + x(1,2,29) + x(1,2,30) + x(1,2,31) + x(1,2,32) = 1
 time(2,4): x(4,2,0) + x(4,2,1) + x(4,2,2) + x(4,2,3) + x(4,2,4) + x(4,2,5)
   + x(4,2,6) + x(4,2,7) + x(4,2,8) + x(4,2,9) + x(4,2,10) = 1
 time(3,1): x(1,3,11) + x(1,3,12) + x(1,3,13) + x(1,3,14) + x(1,3,15)
   + x(1,3,16) + x(1,3,17) + x(1,3,18) + x(1,3,19) + x(1,3,20) + x(1,3,21)
   + x(1,3,22) + x(1,3,23) + x(1,3,24) + x(1,3,25) + x(1,3,26) = 1
 time(3,4): x(4,3,19) + x(4,3,20) + x(4,3,21) + x(4,3,22) + x(4,3,23)
   + x(4,3,24) + x(4,3,25) + x(4,3,26) + x(4,3,27) + x(4,3,28) + x(4,3,29)
   = 1
 time(4,1): x(1,4,10) + x(1,4,11) + x(1,4,12) + x(1,4,13) + x(1,4,14)
   + x(1,4,15) + x(1,4,16) + x(1,4,17) + x(1,4,18) + x(1,4,19) + x(1,4,20)
   + x(1,4,21) + x(1,4,22) + x(1,4,23) + x(1,4,24) + x(1,4,25) = 1
 time(4,4): x(4,4,7) + x(4,4,8) + x(4,4,9) + x(4,4,10) + x(4,4,11)
   + x(4,4,12) + x(4,4,13) + x(4,4,14) + x(4,4,15) + x(4,4,16) + x(4,4,17)
   = 1
 processing(1,0): x(1,1,0) <= 1
 processing(1,1): x(1,1,0) + x(1,1,1) <= 1
 processing(1,2): x(1,1,0) + x(1,1,1) + x(1,1,2) <= 1
 processing(1,3): x(1,1,0) + x(1,1,1) + x(1,1,2) + x(1,1,3) <= 1
 processing(1,4): x(1,1,0) + x(1,1,1) + x(1,1,2) + x(1,1,3) + x(1,1,4)
   <= 1
 processing(1,5): x(1,1,0) + x(1,1,1) + x(1,1,2) + x(1,1,3) + x(1,1,4)
   + x(1,1,5) <= 1
 processing(1,6): x(1,1,0) + x(1,1,1) + x(1,1,2) + x(1,1,3) + x(1,1,4)
   + x(1,1,5) + x(1,1,6) <= 1
 processing(1,7): x(1,1,0) + x(1,1,1) + x(1,1,2) + x(1,1,3) + x(1,1,4)
   + x(1,1,5) + x(1,1,6) + x(1,1,7) <= 1
 processing(1,8): x(1,1,0) + x(1,1,1) + x(1,1,2) + x(1,1,3) + x(1,1,4)
   + x(1,1,5) + x(1,1,6) + x(1,1,7) + x(1,1,8) <= 1
 processing(1,9): x(1,1,0) + x(1,1,1) + x(1,1,2) + x(1,1,3) + x(1,1,4)
   + x(1,1,5) + x(1,1,6) + x(1,1,7) + x(1,1,8) + x(1,1,9) <= 1
 processing(1,10): x(1,1,1) + x(1,1,2) + x(1,1,3) + x(1,1,4) + x(1,1,5)
   + x(1,1,6) + x(1,1,7) + x(1,1,8) + x(1,1,9) + x(1,1,10) + x(4,1,10)
   <= 1
 processing(1,11): x(1,1,2) + x(1,1,3) + x(1,1,4) + x(1,1,5) + x(1,1,6)
   + x(1,1,7) + x(1,1,8) + x(1,1,9) + x(1,1,10) + x(1,1,11) + x(4,1,10)
   + x(4,1,11) <= 1
 processing(1,12): x(1,1,3) + x(1,1,4) + x(1,1,5) + x(1,1,6) + x(1,1,7)
   + x(1,1,8) + x(1,1,9) + x(1,1,10) + x(1,1,11) + x(1,1,12) + x(4,1,10)
   + x(4,1,11) + x(4,1,12) <= 1
 processing(1,13): x(1,1,4) + x(1,1,5) + x(1,1,6) + x(1,1,7) + x(1,1,8)
   + x(1,1,9) + x(1,1,10) + x(1,1,11) + x(1,1,12) + x(1,1,13) + x(4,1,10)
   + x(4,1,11) + x(4,1,12) + x(4,1,13) <= 1
 processing(1,14): x(1,1,5) + x(1,1,6) + x(1,1,7) + x(1,1,8) + x(1,1,9)
   + x(1,1,10) + x(1,1,11) + x(1,1,12) + x(1,1,13) + x(1,1,14) + x(4,1,10)
   + x(4,1,11) + x(4,1,12) + x(4,1,13) + x(4,1,14) <= 1
 processing(1,15): x(1,1,6) + x(1,1,7) + x(1,1,8) + x(1,1,9) + x(1,1,10)
   + x(1,1,11) + x(1,1,12) + x(1,1,13) + x(1,1,14) + x(1,1,15) + x(4,1,10)
   + x(4,1,11) + x(4,1,12) + x(4,1,13) + x(4,1,14) + x(4,1,15) <= 1
 processing(1,16): x(1,1,7) + x(1,1,8) + x(1,1,9) + x(1,1,10) + x(1,1,11)
   + x(1,1,12) + x(1,1,13) + x(1,1,14) + x(1,1,15) + x(4,1,10) + x(4,1,11)
   + x(4,1,12) + x(4,1,13) + x(4,1,14) + x(4,1,15) + x(4,1,16) <= 1
 processing(1,17): x(1,1,8) + x(1,1,9) + x(1,1,10) + x(1,1,11) + x(1,1,12)
   + x(1,1,13) + x(1,1,14) + x(1,1,15) + x(4,1,10) + x(4,1,11) + x(4,1,12)
   + x(4,1,13) + x(4,1,14) + x(4,1,15) + x(4,1,16) + x(4,1,17) <= 1
 processing(1,18): x(1,1,9) + x(1,1,10) + x(1,1,11) + x(1,1,12) + x(1,1,13)
   + x(1,1,14) + x(1,1,15) + x(4,1,10) + x(4,1,11) + x(4,1,12) + x(4,1,13)
   + x(4,1,14) + x(4,1,15) + x(4,1,16) + x(4,1,17) + x(4,1,18) <= 1
 processing(1,19): x(1,1,10) + x(1,1,11) + x(1,1,12) + x(1,1,13)
   + x(1,1,14) + x(1,1,15) + x(4,1,11) + x(4,1,12) + x(4,1,13) + x(4,1,14)
   + x(4,1,15) + x(4,1,16) + x(4,1,17) + x(4,1,18) + x(4,1,19) <= 1
 processing(1,20): x(1,1,11) + x(1,1,12) + x(1,1,13) + x(1,1,14)
   + x(1,1,15) + x(4,1,12) + x(4,1,13) + x(4,1,14) + x(4,1,15) + x(4,1,16)
   + x(4,1,17) + x(4,1,18) + x(4,1,19) + x(4,1,20) <= 1
 processing(1,21): x(1,1,12) + x(1,1,13) + x(1,1,14) + x(1,1,15)
   + x(4,1,13) + x(4,1,14) + x(4,1,15) + x(4,1,16) + x(4,1,17) + x(4,1,18)
   + x(4,1,19) + x(4,1,20) <= 1
 processing(1,22): x(1,1,13) + x(1,1,14) + x(1,1,15) + x(4,1,14)
   + x(4,1,15) + x(4,1,16) + x(4,1,17) + x(4,1,18) + x(4,1,19) + x(4,1,20)
   <= 1
 processing(1,23): x(1,1,14) + x(1,1,15) + x(4,1,15) + x(4,1,16)
   + x(4,1,17) + x(4,1,18) + x(4,1,19) + x(4,1,20) <= 1
 processing(1,24): x(1,1,15) + x(4,1,16) + x(4,1,17) + x(4,1,18)
   + x(4,1,19) + x(4,1,20) <= 1
 processing(1,25): x(4,1,17) + x(4,1,18) + x(4,1,19) + x(4,1,20) <= 1
 processing(1,26): x(4,1,18) + x(4,1,19) + x(4,1,20) <= 1
 processing(1,27): x(4,1,19) + x(4,1,20) <= 1
 processing(1,28): x(4,1,20) <= 1
 processing(1,29): <= 1
 processing(1,30): <= 1
 processing(1,31): <= 1
 processing(1,32): <= 1
 processing(1,33): <= 1
 processing(1,34): <= 1
 processing(1,35): <= 1
 processing(1,36): <= 1
 processing(1,37): <= 1
 processing(1,38): <= 1
 processing(2,0): x(4,2,0) <= 1
 processing(2,1): x(4,2,0) + x(4,2,1) <= 1
 processing(2,2): x(4,2,0) + x(4,2,1) + x(4,2,2) <= 1
 processing(2,3): x(4,2,0) + x(4,2,1) + x(4,2,2) + x(4,2,3) <= 1
 processing(2,4): x(4,2,0) + x(4,2,1) + x(4,2,2) + x(4,2,3) + x(4,2,4)
   <= 1
 processing(2,5): x(4,2,0) + x(4,2,1) + x(4,2,2) + x(4,2,3) + x(4,2,4)
   + x(4,2,5) <= 1
 processing(2,6): x(4,2,0) + x(4,2,1) + x(4,2,2) + x(4,2,3) + x(4,2,4)
   + x(4,2,5) + x(4,2,6) <= 1
 processing(2,7): x(4,2,1) + x(4,2,2) + x(4,2,3) + x(4,2,4) + x(4,2,5)
   + x(4,2,6) + x(4,2,7) <= 1
 processing(2,8): x(4,2,2) + x(4,2,3) + x(4,2,4) + x(4,2,5) + x(4,2,6)
   + x(4,2,7) + x(4,2,8) <= 1
 processing(2,9): x(4,2,3) + x(4,2,4) + x(4,2,5) + x(4,2,6) + x(4,2,7)
   + x(4,2,8) + x(4,2,9) <= 1
 processing(2,10): x(4,2,4) + x(4,2,5) + x(4,2,6) + x(4,2,7) + x(4,2,8)
   + x(4,2,9) + x(4,2,10) <= 1
 processing(2,11): x(4,2,5) + x(4,2,6) + x(4,2,7) + x(4,2,8) + x(4,2,9)
   + x(4,2,10) <= 1
 processing(2,12): x(4,2,6) + x(4,2,7) + x(4,2,8) + x(4,2,9) + x(4,2,10)
   <= 1
 processing(2,13): x(4,2,7) + x(4,2,8) + x(4,2,9) + x(4,2,10) <= 1
 processing(2,14): x(4,2,8) + x(4,2,9) + x(4,2,10) <= 1
 processing(2,15): x(4,2,9) + x(4,2,10) <= 1
 processing(2,16): x(4,2,10) <= 1
 processing(2,17): x(1,2,17) <= 1
 processing(2,18): x(1,2,17) + x(1,2,18) <= 1
 processing(2,19): x(1,2,17) + x(1,2,18) + x(1,2,19) <= 1
 processing(2,20): x(1,2,17) + x(1,2,18) + x(1,2,19) + x(1,2,20) <= 1
 processing(2,21): x(1,2,17) + x(1,2,18) + x(1,2,19) + x(1,2,20)
   + x(1,2,21) <= 1
 processing(2,22): x(1,2,17) + x(1,2,18) + x(1,2,19) + x(1,2,20)
   + x(1,2,21) + x(1,2,22) <= 1
 processing(2,23): x(1,2,17) + x(1,2,18) + x(1,2,19) + x(1,2,20)
   + x(1,2,21) + x(1,2,22) + x(1,2,23) <= 1
 processing(2,24): x(1,2,18) + x(1,2,19) + x(1,2,20) + x(1,2,21)
   + x(1,2,22) + x(1,2,23) + x(1,2,24) <= 1
 processing(2,25): x(1,2,19) + x(1,2,20) + x(1,2,21) + x(1,2,22)
   + x(1,2,23) + x(1,2,24) + x(1,2,25) <= 1
 processing(2,26): x(1,2,20) + x(1,2,21) + x(1,2,22) + x(1,2,23)
   + x(1,2,24) + x(1,2,25) + x(1,2,26) <= 1
 processing(2,27): x(1,2,21) + x(1,2,22) + x(1,2,23) + x(1,2,24)
   + x(1,2,25) + x(1,2,26) + x(1,2,27) <= 1
 processing(2,28): x(1,2,22) + x(1,2,23) + x(1,2,24) + x(1,2,25)
   + x(1,2,26) + x(1,2,27) + x(1,2,28) <= 1
 processing(2,29): x(1,2,23) + x(1,2,24) + x(1,2,25) + x(1,2,26)
   + x(1,2,27) + x(1,2,28) + x(1,2,29) <= 1
 processing(2,30): x(1,2,24) + x(1,2,25) + x(1,2,26) + x(1,2,27)
   + x(1,2,28) + x(1,2,29) + x(1,2,30) <= 1
 processing(2,31): x(1,2,25) + x(1,2,26) + x(1,2,27) + x(1,2,28)
   + x(1,2,29) + x(1,2,30) + x(1,2,31) <= 1
 processing(2,32): x(1,2,26) + x(1,2,27) + x(1,2,28) + x(1,2,29)
   + x(1,2,30) + x(1,2,31) + x(1,2,32) <= 1
 processing(2,33): x(1,2,27) + x(1,2,28) + x(1,2,29) + x(1,2,30)
   + x(1,2,31) + x(1,2,32) <= 1
 processing(2,34): x(1,2,28) + x(1,2,29) + x(1,2,30) + x(1,2,31)
   + x(1,2,32) <= 1
 processing(2,35): x(1,2,29) + x(1,2,30) + x(1,2,31) + x(1,2,32) <= 1
 processing(2,36): x(1,2,30) + x(1,2,31) + x(1,2,32) <= 1
 processing(2,37): x(1,2,31) + x(1,2,32) <= 1
 processing(2,38): x(1,2,32) <= 1
 processing(3,0): <= 1
 processing(3,1): <= 1
 processing(3,2): <= 1
 processing(3,3): <= 1
 processing(3,4): <= 1
 processing(3,5): <= 1
 processing(3,6): <= 1
 processing(3,7): <= 1
 processing(3,8): <= 1
 processing(3,9): <= 1
 processing(3,10): <= 1
 processing(3,11): x(1,3,11) <= 1
 processing(3,12): x(1,3,11) + x(1,3,12) <= 1
 processing(3,13): x(1,3,11) + x(1,3,12) + x(1,3,13) <= 1
 processing(3,14): x(1,3,11) + x(1,3,12) + x(1,3,13) + x(1,3,14) <= 1
 processing(3,15): x(1,3,11) + x(1,3,12) + x(1,3,13) + x(1,3,14)
   + x(1,3,15) <= 1
 processing(3,16): x(1,3,11) + x(1,3,12) + x(1,3,13) + x(1,3,14)
   + x(1,3,15) + x(1,3,16) <= 1
 processing(3,17): x(1,3,12) + x(1,3,13) + x(1,3,14) + x(1,3,15)
   + x(1,3,16) + x(1,3,17) <= 1
 processing(3,18): x(1,3,13) + x(1,3,14) + x(1,3,15) + x(1,3,16)
   + x(1,3,17) + x(1,3,18) <= 1
 processing(3,19): x(1,3,14) + x(1,3,15) + x(1,3,16) + x(1,3,17)
   + x(1,3,18) + x(1,3,19) + x(4,3,19) <= 1
 processing(3,20): x(1,3,15) + x(1,3,16) + x(1,3,17) + x(1,3,18)
   + x(1,3,19) + x(1,3,20) + x(4,3,19) + x(4,3,20) <= 1
 processing(3,21): x(1,3,16) + x(1,3,17) + x(1,3,18) + x(1,3,19)
   + x(1,3,20) + x(1,3,21) + x(4,3,19) + x(4,3,20) + x(4,3,21) <= 1
 processing(3,22): x(1,3,17) + x(1,3,18) + x(1,3,19) + x(1,3,20)
   + x(1,3,21) + x(1,3,22) + x(4,3,19) + x(4,3,20) + x(4,3,21) + x(4,3,22)
   <= 1
 processing(3,23): x(1,3,18) + x(1,3,19) + x(1,3,20) + x(1,3,21)
   + x(1,3,22) + x(1,3,23) + x(4,3,19) + x(4,3,20) + x(4,3,21) + x(4,3,22)
   + x(4,3,23) <= 1
 processing(3,24): x(1,3,19) + x(1,3,20) + x(1,3,21) + x(1,3,22)
   + x(1,3,23) + x(1,3,24) + x(4,3,19) + x(4,3,20) + x(4,3,21) + x(4,3,22)
   + x(4,3,23) + x(4,3,24) <= 1
 processing(3,25): x(1,3,20) + x(1,3,21) + x(1,3,22) + x(1,3,23)
   + x(1,3,24) + x(1,3,25) + x(4,3,19) + x(4,3,20) + x(4,3,21) + x(4,3,22)
   + x(4,3,23) + x(4,3,24) + x(4,3,25) <= 1
 processing(3,26): x(1,3,21) + x(1,3,22) + x(1,3,23) + x(1,3,24)
   + x(1,3,25) + x(1,3,26) + x(4,3,19) + x(4,3,20) + x(4,3,21) + x(4,3,22)
   + x(4,3,23) + x(4,3,24) + x(4,3,25) + x(4,3,26) <= 1
 processing(3,27): x(1,3,22) + x(1,3,23) + x(1,3,24) + x(1,3,25)
   + x(1,3,26) + x(4,3,19) + x(4,3,20) + x(4,3,21) + x(4,3,22) + x(4,3,23)
   + x(4,3,24) + x(4,3,25) + x(4,3,26) + x(4,3,27) <= 1
 processing(3,28): x(1,3,23) + x(1,3,24) + x(1,3,25) + x(1,3,26)
   + x(4,3,19) + x(4,3,20) + x(4,3,21) + x(4,3,22) + x(4,3,23) + x(4,3,24)
   + x(4,3,25) + x(4,3,26) + x(4,3,27) + x(4,3,28) <= 1
 processing(3,29): x(1,3,24) + x(1,3,25) + x(1,3,26) + x(4,3,20)
   + x(4,3,21) + x(4,3,22) + x(4,3,23) + x(4,3,24) + x(4,3,25) + x(4,3,26)
   + x(4,3,27) + x(4,3,28) + x(4,3,29) <= 1
 processing(3,30): x(1,3,25) + x(1,3,26) + x(4,3,21) + x(4,3,22)
   + x(4,3,23) + x(4,3,24) + x(4,3,25) + x(4,3,26) + x(4,3,27) + x(4,3,28)
   + x(4,3,29) <= 1
 processing(3,31): x(1,3,26) + x(4,3,22) + x(4,3,23) + x(4,3,24)
   + x(4,3,25) + x(4,3,26) + x(4,3,27) + x(4,3,28) + x(4,3,29) <= 1
 processing(3,32): x(4,3,23) + x(4,3,24) + x(4,3,25) + x(4,3,26)
   + x(4,3,27) + x(4,3,28) + x(4,3,29) <= 1
 processing(3,33): x(4,3,24) + x(4,3,25) + x(4,3,26) + x(4,3,27)
   + x(4,3,28) + x(4,3,29) <= 1
 processing(3,34): x(4,3,25) + x(4,3,26) + x(4,3,27) + x(4,3,28)
   + x(4,3,29) <= 1
 processing(3,35): x(4,3,26) + x(4,3,27) + x(4,3,28) + x(4,3,29) <= 1
 processing(3,36): x(4,3,27) + x(4,3,28) + x(4,3,29) <= 1
 processing(3,37): x(4,3,28) + x(4,3,29) <= 1
 processing(3,38): x(4,3,29) <= 1
 processing(4,0): <= 1
 processing(4,1): <= 1
 processing(4,2): <= 1
 processing(4,3): <= 1
 processing(4,4): <= 1
 processing(4,5): <= 1
 processing(4,6): <= 1
 processing(4,7): x(4,4,7) <= 1
 processing(4,8): x(4,4,7) + x(4,4,8) <= 1
 processing(4,9): x(4,4,7) + x(4,4,8) + x(4,4,9) <= 1
 processing(4,10): x(1,4,10) + x(4,4,8) + x(4,4,9) + x(4,4,10) <= 1
 processing(4,11): x(1,4,11) + x(4,4,9) + x(4,4,10) + x(4,4,11) <= 1
 processing(4,12): x(1,4,12) + x(4,4,10) + x(4,4,11) + x(4,4,12) <= 1
 processing(4,13): x(1,4,13) + x(4,4,11) + x(4,4,12) + x(4,4,13) <= 1
 processing(4,14): x(1,4,14) + x(4,4,12) + x(4,4,13) + x(4,4,14) <= 1
 processing(4,15): x(1,4,15) + x(4,4,13) + x(4,4,14) + x(4,4,15) <= 1
 processing(4,16): x(1,4,16) + x(4,4,14) + x(4,4,15) + x(4,4,16) <= 1
 processing(4,17): x(1,4,17) + x(4,4,15) + x(4,4,16) + x(4,4,17) <= 1
 processing(4,18): x(1,4,18) + x(4,4,16) + x(4,4,17) <= 1
 processing(4,19): x(1,4,19) + x(4,4,17) <= 1
 processing(4,20): x(1,4,20) <= 1
 processing(4,21): x(1,4,21) <= 1
 processing(4,22): x(1,4,22) <= 1
 processing(4,23): x(1,4,23) <= 1
 processing(4,24): x(1,4,24) <= 1
 processing(4,25): x(1,4,25) <= 1
 processing(4,26): <= 1
 processing(4,27): <= 1
 processing(4,28): <= 1
 processing(4,29): <= 1
 processing(4,30): <= 1
 processing(4,31): <= 1
 processing(4,32): <= 1
 processing(4,33): <= 1
 processing(4,34): <= 1
 processing(4,35): <= 1
 processing(4,36): <= 1
 processing(4,37): <= 1
 processing(4,38): <= 1
 ord(4,1): 10 x(1,1,0) + 11 x(1,1,1) + 12 x(1,1,2) + 13 x(1,1,3)
   + 14 x(1,1,4) + 15 x(1,1,5) + 16 x(1,1,6) + 17 x(1,1,7) + 18 x(1,1,8)
   + 19 x(1,1,9) + 20 x(1,1,10) + 21 x(1,1,11) + 22 x(1,1,12)
   + 23 x(1,1,13) + 24 x(1,1,14) + 25 x(1,1,15) - 10 x(1,4,10)
   - 11 x(1,4,11) - 12 x(1,4,12) - 13 x(1,4,13) - 14 x(1,4,14)
   - 15 x(1,4,15) - 16 x(1,4,16) - 17 x(1,4,17) - 18 x(1,4,18)
   - 19 x(1,4,19) - 20 x(1,4,20) - 21 x(1,4,21) - 22 x(1,4,22)
   - 23 x(1,4,23) - 24 x(1,4,24) - 25 x(1,4,25) <= 0
 ord(3,1): - 11 x(1,3,11) - 12 x(1,3,12) - 13 x(1,3,13) - 14 x(1,3,14)
   - 15 x(1,3,15) - 16 x(1,3,16) - 17 x(1,3,17) - 18 x(1,3,18)
   - 19 x(1,3,19) - 20 x(1,3,20) - 21 x(1,3,21) - 22 x(1,3,22)
   - 23 x(1,3,23) - 24 x(1,3,24) - 25 x(1,3,25) - 26 x(1,3,26)
   + 11 x(1,4,10) + 12 x(1,4,11) + 13 x(1,4,12) + 14 x(1,4,13)
   + 15 x(1,4,14) + 16 x(1,4,15) + 17 x(1,4,16) + 18 x(1,4,17)
   + 19 x(1,4,18) + 20 x(1,4,19) + 21 x(1,4,20) + 22 x(1,4,21)
   + 23 x(1,4,22) + 24 x(1,4,23) + 25 x(1,4,24) + 26 x(1,4,25) <= 0
 ord(2,1): - 17 x(1,2,17) - 18 x(1,2,18) - 19 x(1,2,19) - 20 x(1,2,20)
   - 21 x(1,2,21) - 22 x(1,2,22) - 23 x(1,2,23) - 24 x(1,2,24)
   - 25 x(1,2,25) - 26 x(1,2,26) - 27 x(1,2,27) - 28 x(1,2,28)
   - 29 x(1,2,29) - 30 x(1,2,30) - 31 x(1,2,31) - 32 x(1,2,32)
   + 17 x(1,3,11) + 18 x(1,3,12) + 19 x(1,3,13) + 20 x(1,3,14)
   + 21 x(1,3,15) + 22 x(1,3,16) + 23 x(1,3,17) + 24 x(1,3,18)
   + 25 x(1,3,19) + 26 x(1,3,20) + 27 x(1,3,21) + 28 x(1,3,22)
   + 29 x(1,3,23) + 30 x(1,3,24) + 31 x(1,3,25) + 32 x(1,3,26) <= 0
 ord(4,4): 7 x(4,2,0) + 8 x(4,2,1) + 9 x(4,2,2) + 10 x(4,2,3) + 11 x(4,2,4)
   + 12 x(4,2,5) + 13 x(4,2,6) + 14 x(4,2,7) + 15 x(4,2,8) + 16 x(4,2,9)
   + 17 x(4,2,10) - 7 x(4,4,7) - 8 x(4,4,8) - 9 x(4,4,9) - 10 x(4,4,10)
   - 11 x(4,4,11) - 12 x(4,4,12) - 13 x(4,4,13) - 14 x(4,4,14)
   - 15 x(4,4,15) - 16 x(4,4,16) - 17 x(4,4,17) <= 0
 ord(1,4): - 10 x(4,1,10) - 11 x(4,1,11) - 12 x(4,1,12) - 13 x(4,1,13)
   - 14 x(4,1,14) - 15 x(4,1,15) - 16 x(4,1,16) - 17 x(4,1,17)
   - 18 x(4,1,18) - 19 x(4,1,19) - 20 x(4,1,20) + 10 x(4,4,7) + 11 x(4,4,8)
   + 12 x(4,4,9) + 13 x(4,4,10) + 14 x(4,4,11) + 15 x(4,4,12)
   + 16 x(4,4,13) + 17 x(4,4,14) + 18 x(4,4,15) + 19 x(4,4,16)
   + 20 x(4,4,17) <= 0
 ord(3,4): 19 x(4,1,10) + 20 x(4,1,11) + 21 x(4,1,12) + 22 x(4,1,13)
   + 23 x(4,1,14) + 24 x(4,1,15) + 25 x(4,1,16) + 26 x(4,1,17)
   + 27 x(4,1,18) + 28 x(4,1,19) + 29 x(4,1,20) - 19 x(4,3,19)
   - 20 x(4,3,20) - 21 x(4,3,21) - 22 x(4,3,22) - 23 x(4,3,23)
   - 24 x(4,3,24) - 25 x(4,3,25) - 26 x(4,3,26) - 27 x(4,3,27)
   - 28 x(4,3,28) - 29 x(4,3,29) <= 0
 makespan(1,1): - 10 x(1,1,0) - 11 x(1,1,1) - 12 x(1,1,2) - 13 x(1,1,3)
   - 14 x(1,1,4) - 15 x(1,1,5) - 16 x(1,1,6) - 17 x(1,1,7) - 18 x(1,1,8)
   - 19 x(1,1,9) - 20 x(1,1,10) - 21 x(1,1,11) - 22 x(1,1,12)
   - 23 x(1,1,13) - 24 x(1,1,14) - 25 x(1,1,15) + C = 0
Bounds
Generals
 x(1,1,0) x(1,1,1) x(1,1,2) x(1,1,3) x(1,1,4) x(1,1,5) x(1,1,6) x(1,1,7)
 x(1,1,8) x(1,1,9) x(1,1,10) x(1,1,11) x(1,1,12) x(1,1,13) x(1,1,14)
 x(1,1,15) x(4,1,10) x(4,1,11) x(4,1,12) x(4,1,13) x(4,1,14) x(4,1,15)
 x(4,1,16) x(4,1,17) x(4,1,18) x(4,1,19) x(4,1,20) x(1,2,17) x(1,2,18)
 x(1,2,19) x(1,2,20) x(1,2,21) x(1,2,22) x(1,2,23) x(1,2,24) x(1,2,25)
 x(1,2,26) x(1,2,27) x(1,2,28) x(1,2,29) x(1,2,30) x(1,2,31) x(1,2,32)
 x(4,2,0) x(4,2,1) x(4,2,2) x(4,2,3) x(4,2,4) x(4,2,5) x(4,2,6) x(4,2,7)
 x(4,2,8) x(4,2,9) x(4,2,10) x(1,3,11) x(1,3,12) x(1,3,13) x(1,3,14)
 x(1,3,15) x(1,3,16) x(1,3,17) x(1,3,18) x(1,3,19) x(1,3,20) x(1,3,21)
 x(1,3,22) x(1,3,23) x(1,3,24) x(1,3,25) x(1,3,26) x(4,3,19) x(4,3,20)
 x(4,3,21) x(4,3,22) x(4,3,23) x(4,3,24) x(4,3,25) x(4,3,26) x(4,3,27)
 x(4,3,28) x(4,3,29) x(1,4,10) x(1,4,11) x(1,4,12) x(1,4,13) x(1,4,14)
 x(1,4,15) x(1,4,16) x(1,4,17) x(1,4,18) x(1,4,19) x(1,4,20) x(1,4,21)
 x(1,4,22) x(1,4,23) x(1,4,24) x(1,4,25) x(4,4,7) x(4,4,8) x(4,4,9)
 x(4,4,10) x(4,4,11) x(4,4,12) x(4,4,13) x(4,4,14) x(4,4,15) x(4,4,16)
 x(4,4,17) C
End
