code/vi_44_39_0-3-.sol
Optimal (within gap tolerance) - objective value -20 - solution time 0
10 x(1,1,10) 1 0
26 x(4,1,20) 1 0
42 x(1,2,32) 1 0
43 x(4,2,0) 1 0
66 x(1,3,23) 1 0
80 x(4,3,29) 1 0
91 x(1,4,20) 1 0
97 x(4,4,7) 1 0
108 C 20 -1
